c   #vars: 121   #clauses: 559   #literals: 1550
c 
p cnf 121 559
-1 -2 0
-3 -4 0
-5 -6 0
-7 -8 0
-10 -11 0
-3 9 20 21 0
34 -99 106 107 0
-14 -15 0
7 8 80 81 0
-16 -17 0
-18 -19 0
-20 -21 0
-22 -23 0
-24 -25 0
-26 -27 0
-28 -29 0
-30 -31 0
-32 -33 0
-35 -36 0
1 2 -5 12 0
70 71 74 75 0
-37 -38 0
-39 -40 0
-41 -42 0
-43 -44 0
20 21 52 53 0
32 33 86 87 0
-45 -46 0
-47 -48 0
-49 -50 0
-52 -53 0
-54 -55 0
-56 -57 0
-59 -60 0
-65 74 75 83 0
-1 5 6 12 0
-61 -62 0
-63 -64 0
34 94 95 -112 0
-66 -67 0
-68 -69 0
-70 -71 0
-72 -73 0
-74 -75 0
116 117 118 119 0
63 64 116 117 0
-76 -77 0
-78 -79 0
-80 -81 0
10 11 -76 100 0
1 2 -95 113 0
-84 -85 0
-86 -87 0
-88 -89 0
35 36 108 109 0
-90 -91 0
-92 -93 0
-94 -95 0
-96 -97 0
-98 -99 0
-49 52 53 105 0
10 11 66 67 0
66 67 108 109 0
34 106 107 -112 0
-101 -102 0
-103 -104 0
18 19 -90 110 0
-106 -107 0
-108 -109 0
1 2 12 -61 0
-4 13 43 44 0
7 8 66 67 0
-111 -112 0
-114 -115 0
-116 -117 0
-118 -119 0
5 6 84 85 0
-120 -121 0
9 -20 22 23 0
-2 -12 0
3 4 76 77 0
-1 -26 0
-2 -27 0
-6 13 98 99 0
-1 -35 0
-2 -36 0
18 19 80 81 0
-1 -80 0
-2 -81 0
14 15 58 -106 0
-1 -113 0
-3 -7 0
-4 -8 0
56 57 116 117 0
-4 -9 0
7 8 -52 105 0
-3 -13 0
34 -95 106 107 0
5 6 14 15 0
-3 -72 0
-4 -73 0
56 57 78 79 0
-3 -76 0
-4 -77 0
-4 5 6 13 0
-3 9 22 23 0
-6 -12 0
-5 -13 0
34 98 99 -112 0
13 43 44 -99 0
-5 -14 0
-6 -15 0
22 23 92 93 0
-5 -18 0
-6 -19 0
45 46 101 102 0
-5 -84 0
-6 -85 0
16 17 37 38 0
-5 -98 0
-6 -99 0
54 55 101 102 0
-7 -30 0
-8 -31 0
-7 -54 0
-8 -55 0
30 31 74 75 0
-7 -66 0
-8 -67 0
26 27 47 48 0
-7 -72 0
-8 -73 0
-7 -78 0
-8 -79 0
16 17 26 27 0
-7 -80 0
-8 -81 0
28 29 35 36 0
18 19 -41 110 0
-8 -105 0
7 8 30 31 0
43 44 82 -113 0
-9 -21 0
-6 13 43 44 0
43 44 82 -111 0
-9 -23 0
34 -107 111 112 0
-10 -20 0
-11 -21 0
51 -74 80 81 0
-11 -65 0
-39 51 74 75 0
-10 -66 0
-11 -67 0
37 38 86 87 0
-7 52 53 105 0
-11 -100 0
106 107 120 121 0
-10 -120 0
-11 -121 0
16 17 90 91 0
3 4 9 -22 0
-12 -62 0
103 104 111 112 0
24 25 63 64 0
-5 12 61 62 0
14 15 88 89 0
-13 -43 0
34 98 99 -107 0
52 53 88 89 0
39 40 51 -80 0
-13 -98 0
34 -95 98 99 0
-10 45 46 65 0
-14 -47 0
-15 -48 0
-15 -58 0
88 89 92 93 0
-14 -88 0
-15 -89 0
84 85 114 115 0
-14 -114 0
-15 -115 0
28 29 70 71 0
28 29 78 79 0
34 94 95 -107 0
20 21 63 64 0
-16 -24 0
-17 -25 0
10 11 20 21 0
-16 -26 0
-17 -27 0
20 21 96 97 0
-16 -30 0
-17 -31 0
-16 -37 0
-17 -38 0
-43 82 111 112 0
-16 -47 0
-17 -48 0
14 15 114 115 0
-16 -90 0
-17 -91 0
82 111 112 -113 0
-18 -45 0
-19 -46 0
45 46 65 -83 0
-18 -80 0
-19 -81 0
72 73 76 77 0
-18 -101 0
-19 -102 0
3 4 13 -99 0
-19 -110 0
16 17 24 25 0
-20 -52 0
-21 -53 0
84 85 96 97 0
-20 -63 0
-21 -64 0
96 97 103 104 0
-20 -96 0
-21 -97 0
24 25 108 109 0
-20 -106 0
-21 -107 0
-22 -32 0
-23 -33 0
28 29 96 97 0
-22 -49 0
-23 -50 0
39 40 106 107 0
-22 -92 0
-23 -93 0
32 33 58 -106 0
-24 -63 0
-25 -64 0
5 6 13 -99 0
-24 -70 0
-25 -71 0
1 2 35 36 0
-24 -92 0
-25 -93 0
-24 -108 0
-25 -109 0
32 33 114 115 0
-24 -118 0
-25 -119 0
-26 -39 0
-27 -40 0
18 19 45 46 0
-26 -43 0
-27 -44 0
35 36 52 53 0
-26 -47 0
-27 -48 0
-26 -59 0
-27 -60 0
26 27 72 73 0
-26 -72 0
-27 -73 0
7 8 72 73 0
-26 -114 0
-27 -115 0
22 23 32 33 0
-28 -35 0
-29 -36 0
-28 -59 0
-29 -60 0
5 6 98 99 0
-28 -70 0
-29 -71 0
5 6 12 -61 0
-28 -78 0
-29 -79 0
61 62 103 104 0
-28 -96 0
-29 -97 0
70 71 114 115 0
-30 -63 0
-31 -64 0
-30 -68 0
-31 -69 0
49 50 54 55 0
-30 -74 0
-31 -75 0
54 55 118 119 0
-30 -86 0
-31 -87 0
3 4 7 8 0
-33 -58 0
-32 -86 0
-33 -87 0
10 11 -45 65 0
-32 -114 0
-33 -115 0
-18 90 91 110 0
-32 -120 0
-33 -121 0
43 44 114 115 0
-2 -43 82 113 0
30 31 68 69 0
-34 -94 0
-34 -98 0
37 38 94 95 0
-34 -106 0
-34 -111 0
35 36 47 48 0
-35 -47 0
-36 -48 0
16 17 47 48 0
-35 -52 0
-36 -53 0
47 48 108 109 0
-35 -98 0
-36 -99 0
10 11 120 121 0
-35 -103 0
-36 -104 0
-35 -108 0
-36 -109 0
-43 82 -95 113 0
39 40 41 42 0
-37 -80 0
-38 -81 0
74 75 83 -99 0
-37 -86 0
-38 -87 0
-37 -90 0
-38 -91 0
14 15 -32 58 0
-37 -94 0
-38 -95 0
51 74 75 -80 0
-39 -41 0
-40 -42 0
-40 -51 0
-14 58 106 107 0
-45 65 -75 83 0
34 -99 111 112 0
-39 -106 0
-40 -107 0
26 27 114 115 0
-41 -45 0
-42 -46 0
45 46 90 91 0
-41 -74 0
-42 -75 0
3 4 13 -44 0
-42 -110 0
26 27 43 44 0
10 11 -72 100 0
-44 -82 0
34 94 95 -99 0
-43 -106 0
-44 -107 0
41 42 45 46 0
-43 -114 0
-44 -115 0
39 40 51 -74 0
47 48 56 57 0
-39 51 80 81 0
-46 -65 0
22 23 49 50 0
-45 -90 0
-46 -91 0
5 6 13 -44 0
-45 -101 0
-46 -102 0
-47 -56 0
-48 -57 0
18 19 101 102 0
-47 -84 0
-48 -85 0
-47 -108 0
-48 -109 0
49 50 59 60 0
-49 -54 0
-50 -55 0
28 29 59 60 0
-49 -59 0
-50 -60 0
72 73 78 79 0
41 42 -90 110 0
-50 -105 0
-49 -120 0
-50 -121 0
41 42 74 75 0
1 2 80 81 0
-75 83 98 99 0
32 33 120 121 0
-51 -75 0
90 91 94 95 0
-51 -81 0
52 53 111 112 0
-52 -56 0
-53 -57 0
-41 90 91 110 0
-52 -88 0
-53 -89 0
66 67 86 87 0
-52 -98 0
-53 -99 0
101 102 106 107 0
-18 41 42 110 0
-53 -105 0
30 31 86 87 0
-52 -111 0
-53 -112 0
54 55 66 67 0
-54 -66 0
-55 -67 0
13 -44 98 99 0
68 69 74 75 0
-1 12 61 62 0
-65 83 98 99 0
-54 -101 0
-55 -102 0
86 87 114 115 0
-54 -118 0
-55 -119 0
35 36 98 99 0
84 85 111 112 0
-56 -78 0
-57 -79 0
-2 82 -111 113 0
-56 -116 0
-57 -117 0
66 67 68 69 0
-45 65 83 -99 0
-58 -107 0
-10 72 73 100 0
-59 -98 0
-60 -99 0
-4 13 98 99 0
-10 65 -75 83 0
10 11 65 -83 0
-61 -86 0
-62 -87 0
7 8 -49 105 0
-61 -103 0
-62 -104 0
24 25 70 71 0
-61 -111 0
-62 -112 0
52 53 56 57 0
-63 -72 0
-64 -73 0
1 2 26 27 0
-63 -116 0
-64 -117 0
37 38 90 91 0
-10 65 83 -99 0
1 2 -82 113 0
90 91 118 119 0
-66 -68 0
-67 -69 0
82 -95 -111 113 0
-66 -86 0
-67 -87 0
72 73 -76 100 0
-66 -108 0
-67 -109 0
34 -95 111 112 0
-68 -74 0
-69 -75 0
16 17 30 31 0
-68 -88 0
-69 -89 0
80 81 116 117 0
-70 -74 0
-71 -75 0
24 25 92 93 0
-70 -114 0
-71 -115 0
37 38 80 81 0
-72 -76 0
-73 -77 0
20 21 106 107 0
-72 -78 0
-73 -79 0
43 44 106 107 0
49 50 -52 105 0
-73 -100 0
-74 -83 0
-82 94 95 113 0
76 77 86 87 0
3 4 9 -20 0
61 62 86 87 0
9 20 21 -22 0
-32 58 106 107 0
-76 -86 0
-77 -87 0
26 27 59 60 0
-7 49 50 105 0
-77 -100 0
7 8 54 55 0
-80 -111 0
-81 -112 0
80 81 114 115 0
-80 -114 0
-81 -115 0
116 117 120 121 0
-80 -116 0
-81 -117 0
80 81 111 112 0
-72 76 77 100 0
-82 -112 0
-14 32 33 58 0
-10 76 77 100 0
68 69 88 89 0
-83 -98 0
-2 94 95 113 0
7 8 78 79 0
-84 -96 0
-85 -97 0
92 93 101 102 0
-84 -111 0
-85 -112 0
61 62 111 112 0
-84 -114 0
-85 -115 0
52 53 98 99 0
-86 -114 0
-87 -115 0
30 31 63 64 0
-88 -92 0
-89 -93 0
59 60 98 99 0
-90 -94 0
-91 -95 0
26 27 39 40 0
3 4 -6 13 0
-91 -110 0
14 15 47 48 0
-90 -118 0
-91 -119 0
3 4 72 73 0
-92 -101 0
-93 -102 0
24 25 118 119 0
-94 -113 0
47 48 84 85 0
-96 -103 0
-97 -104 0
-101 -106 0
-102 -107 0
35 36 103 104 0
-103 -111 0
-104 -112 0
5 6 18 19 0
-106 -120 0
-107 -121 0
63 64 72 73 0
-116 -118 0
-117 -119 0
49 50 120 121 0
-116 -120 0
-117 -121 0
